(set-logic QF_UF)
(declare-fun A0 () Bool)
(declare-fun A1 () Bool)
(declare-fun A2 () Bool)
(declare-fun A3 () Bool)
(declare-fun A4 () Bool)
(declare-fun A5 () Bool)
(declare-fun A6 () Bool)
(declare-fun A7 () Bool)
(declare-fun A8 () Bool)
(declare-fun A9 () Bool)
(declare-fun A10 () Bool)
(declare-fun A11 () Bool)
(declare-fun A12 () Bool)
(declare-fun A13 () Bool)
(declare-fun A14 () Bool)
(declare-fun A15 () Bool)
(declare-fun A16 () Bool)
(declare-fun A17 () Bool)
(declare-fun A18 () Bool)
(declare-fun A19 () Bool)
(declare-fun A20 () Bool)
(declare-fun A21 () Bool)
(declare-fun A22 () Bool)
(declare-fun A23 () Bool)
(declare-fun A24 () Bool)
(assert (let ((.def_0 (not A15))) (let ((.def_1 (and A21 .def_0))) (let ((.def_2 (not A14))) (let ((.def_3 (or A22 .def_2))) (let ((.def_4 (and .def_3 .def_1))) (let ((.def_5 (or A14 A12))) (let ((.def_6 (not .def_5))) (let ((.def_7 (or A3 .def_2))) (let ((.def_8 (or .def_7 .def_6))) (let ((.def_9 (not .def_8))) (let ((.def_10 (or .def_9 .def_4))) (let ((.def_11 (not .def_10))) (let ((.def_12 (not A7))) (let ((.def_13 (not A8))) (let ((.def_14 (or .def_13 .def_12))) (let ((.def_15 (or A4 A5))) (let ((.def_16 (and .def_15 .def_14))) (let ((.def_17 (and A10 A18))) (let ((.def_18 (and A5 .def_2))) (let ((.def_19 (not .def_18))) (let ((.def_20 (or .def_19 .def_17))) (let ((.def_21 (and .def_20 .def_16))) (let ((.def_22 (or .def_21 .def_11))) (let ((.def_23 (and A9 A18))) (let ((.def_24 (not A3))) (let ((.def_25 (or .def_24 A11))) (let ((.def_26 (and .def_25 .def_23))) (let ((.def_27 (not .def_26))) (let ((.def_28 (and A23 A1))) (let ((.def_29 (not .def_28))) (let ((.def_30 (or A6 .def_13))) (let ((.def_31 (or .def_30 .def_29))) (let ((.def_32 (not .def_31))) (let ((.def_33 (and .def_32 .def_27))) (let ((.def_34 (not .def_33))) (let ((.def_35 (not A20))) (let ((.def_36 (not A16))) (let ((.def_37 (and .def_36 .def_35))) (let ((.def_38 (not .def_37))) (let ((.def_39 (not A11))) (let ((.def_40 (and A9 .def_39))) (let ((.def_41 (and .def_40 .def_38))) (let ((.def_42 (or A0 A17))) (let ((.def_43 (not .def_42))) (let ((.def_44 (and .def_12 A23))) (let ((.def_45 (or .def_44 .def_43))) (let ((.def_46 (and .def_45 .def_41))) (let ((.def_47 (= .def_46 .def_34))) (let ((.def_48 (not .def_47))) (let ((.def_49 (or .def_48 .def_22))) (let ((.def_50 (not .def_49))) (let ((.def_51 (= .def_13 .def_0))) (let ((.def_52 (not A13))) (let ((.def_53 (and .def_52 A24))) (let ((.def_54 (= .def_53 .def_51))) (let ((.def_55 (not .def_54))) (let ((.def_56 (and .def_12 A9))) (let ((.def_57 (not .def_56))) (let ((.def_58 (and A10 A11))) (let ((.def_59 (not .def_58))) (let ((.def_60 (= .def_59 .def_57))) (let ((.def_61 (not .def_60))) (let ((.def_62 (and .def_61 .def_55))) (let ((.def_63 (not .def_62))) (let ((.def_64 (not A21))) (let ((.def_65 (or .def_64 A23))) (let ((.def_66 (not A12))) (let ((.def_67 (and .def_66 A5))) (let ((.def_68 (not .def_67))) (let ((.def_69 (and .def_68 .def_65))) (let ((.def_70 (or .def_52 .def_13))) (let ((.def_71 (not .def_70))) (let ((.def_72 (or A16 A21))) (let ((.def_73 (not .def_72))) (let ((.def_74 (or .def_73 .def_71))) (let ((.def_75 (and .def_74 .def_69))) (let ((.def_76 (not .def_75))) (let ((.def_77 (= .def_76 .def_63))) (let ((.def_78 (and .def_35 A3))) (let ((.def_79 (not A2))) (let ((.def_80 (or .def_79 .def_36))) (let ((.def_81 (not .def_80))) (let ((.def_82 (or .def_81 .def_78))) (let ((.def_83 (not .def_82))) (let ((.def_84 (not A19))) (let ((.def_85 (or .def_2 .def_84))) (let ((.def_86 (and A1 A8))) (let ((.def_87 (not .def_86))) (let ((.def_88 (and .def_87 .def_85))) (let ((.def_89 (or .def_88 .def_83))) (let ((.def_90 (not .def_89))) (let ((.def_91 (or .def_12 .def_64))) (let ((.def_92 (and A8 A13))) (let ((.def_93 (not .def_92))) (let ((.def_94 (and .def_93 .def_91))) (let ((.def_95 (not .def_94))) (let ((.def_96 (not A1))) (let ((.def_97 (or A4 .def_96))) (let ((.def_98 (not A24))) (let ((.def_99 (or A21 .def_98))) (let ((.def_100 (or .def_99 .def_97))) (let ((.def_101 (not .def_100))) (let ((.def_102 (or .def_101 .def_95))) (let ((.def_103 (= .def_102 .def_90))) (let ((.def_104 (not .def_103))) (let ((.def_105 (or .def_104 .def_77))) (let ((.def_106 (not .def_105))) (let ((.def_107 (or .def_106 .def_50))) (let ((.def_108 (not .def_107))) .def_108))))))))))))))))))))))))))))))))))))))))))))))))))))))))))))))))))))))))))))))))))))))))))))))))))))))))))))))
(check-sat)
